c FILE: N20_K3_L50_sat.cnf
c
c Generated randomly by kentnek.
c
c N = 20, K = 3, L = 50.
c
c NOTE: Satisfiable.
c
p cnf 20 50
-4 -9 11 0
-16 -1 11 0
-1 -2 11 0
-16 -4 9 0
20 -7 8 0
16 -5 -6 0
-19 -20 15 0
-18 -3 14 0
7 11 15 0
19 11 -14 0
18 -20 5 0
-16 -20 9 0
-4 -11 -15 0
-19 -8 -12 0
19 20 9 0
-19 20 -11 0
-16 19 -13 0
18 -3 13 0
-16 19 10 0
-4 7 -13 0
6 10 13 0
-2 19 11 0
-20 -10 13 0
-16 19 -9 0
16 1 -2 0
1 -19 12 0
16 3 -5 0
16 19 -10 0
16 -17 19 0
19 5 8 0
7 8 -15 0
-2 4 -14 0
-1 -8 13 0
8 -12 13 0
-16 -9 15 0
-5 -10 -15 0
-6 -7 -8 0
-6 14 15 0
2 -13 14 0
-18 3 20 0
-5 -12 14 0
-17 -2 7 0
-1 20 13 0
18 -5 -12 0
-7 -9 10 0
-19 5 15 0
2 5 -9 0
-2 3 -20 0
-1 18 7 0
18 -7 10 0
